NAME : X_18_seed_123_id_16
TYPE : CVRP
DIMENSION : 181
EDGE_WEIGHT_TYPE : EUC_2D
CAPACITY : 8
NODE_COORD_SECTION
1	201	207
2	137	291
3	620	603
4	681	347
5	4	976
6	427	459
7	88	782
8	187	315
9	300	216
10	426	412
11	619	548
12	664	354
13	147	329
14	653	330
15	128	879
16	324	189
17	71	124
18	495	387
19	157	351
20	574	436
21	35	915
22	108	995
23	95	324
24	87	800
25	439	439
26	446	547
27	569	338
28	42	754
29	560	678
30	563	693
31	176	277
32	140	262
33	132	342
34	689	694
35	407	506
36	422	529
37	67	768
38	782	287
39	45	311
40	128	360
41	452	381
42	594	630
43	48	964
44	585	576
45	770	316
46	644	639
47	673	497
48	373	386
49	629	373
50	458	516
51	221	233
52	198	798
53	692	765
54	141	250
55	33	773
56	81	516
57	431	428
58	413	497
59	149	286
60	172	268
61	622	574
62	42	815
63	301	506
64	93	780
65	650	599
66	671	338
67	614	614
68	93	800
69	763	384
70	67	189
71	74	841
72	497	529
73	20	981
74	583	552
75	656	334
76	106	280
77	54	749
78	556	521
79	152	184
80	77	843
81	671	296
82	320	291
83	591	600
84	601	544
85	1	966
86	647	579
87	640	643
88	514	335
89	679	338
90	130	631
91	656	371
92	333	487
93	392	387
94	677	392
95	144	801
96	415	433
97	418	461
98	614	603
99	712	359
100	70	856
101	530	705
102	433	497
103	104	242
104	475	481
105	713	275
106	626	609
107	563	742
108	548	641
109	162	296
110	441	440
111	72	831
112	136	357
113	469	505
114	24	975
115	517	555
116	164	173
117	609	314
118	188	792
119	55	214
120	338	403
121	44	991
122	386	421
123	34	703
124	683	342
125	649	648
126	415	448
127	7	901
128	478	454
129	94	359
130	130	312
131	655	577
132	101	358
133	699	345
134	295	489
135	386	481
136	424	432
137	217	307
138	606	701
139	491	391
140	491	431
141	745	306
142	423	390
143	589	320
144	651	617
145	1	948
146	65	647
147	196	374
148	508	404
149	592	377
150	755	276
151	9	959
152	651	600
153	127	279
154	78	718
155	716	224
156	621	745
157	2	996
158	150	775
159	79	850
160	592	803
161	72	776
162	114	352
163	92	951
164	105	282
165	683	384
166	587	566
167	42	188
168	420	416
169	41	859
170	668	592
171	101	793
172	339	519
173	84	641
174	81	789
175	77	353
176	167	374
177	444	495
178	280	382
179	115	842
180	94	327
181	611	596
DEMAND_SECTION
1	0
2	1
3	1
4	1
5	1
6	1
7	1
8	1
9	1
10	1
11	1
12	1
13	1
14	1
15	1
16	1
17	1
18	1
19	1
20	1
21	1
22	1
23	1
24	1
25	1
26	1
27	1
28	1
29	1
30	1
31	1
32	1
33	1
34	1
35	1
36	1
37	1
38	1
39	1
40	1
41	1
42	1
43	1
44	1
45	1
46	1
47	1
48	1
49	1
50	1
51	1
52	1
53	1
54	1
55	1
56	1
57	1
58	1
59	1
60	1
61	1
62	1
63	1
64	1
65	1
66	1
67	1
68	1
69	1
70	1
71	1
72	1
73	1
74	1
75	1
76	1
77	1
78	1
79	1
80	1
81	1
82	1
83	1
84	1
85	1
86	1
87	1
88	1
89	1
90	1
91	1
92	1
93	1
94	1
95	1
96	1
97	1
98	1
99	1
100	1
101	1
102	1
103	1
104	1
105	1
106	1
107	1
108	1
109	1
110	1
111	1
112	1
113	1
114	1
115	1
116	1
117	1
118	1
119	1
120	1
121	1
122	1
123	1
124	1
125	1
126	1
127	1
128	1
129	1
130	1
131	1
132	1
133	1
134	1
135	1
136	1
137	1
138	1
139	1
140	1
141	1
142	1
143	1
144	1
145	1
146	1
147	1
148	1
149	1
150	1
151	1
152	1
153	1
154	1
155	1
156	1
157	1
158	1
159	1
160	1
161	1
162	1
163	1
164	1
165	1
166	1
167	1
168	1
169	1
170	1
171	1
172	1
173	1
174	1
175	1
176	1
177	1
178	1
179	1
180	1
181	1
DEPOT_SECTION
1
-1
EOF
